WARNING: for repeatability, setting FPU to use double precision
============================[ Problem Statistics ]=============================
|                                                                             |
|  Number of variables:         33791                                         |
|  Number of clauses:          845658                                         |
|  Parse time:                   0.27 s                                       |
|  Eliminated clauses:           0.01 Mb                                      |
|  Simplification time:          0.32 s                                       |
|                                                                             |
============================[ Search Statistics ]==============================
| Conflicts |          ORIGINAL         |          LEARNT          | Progress |
|           |    Vars  Clauses Literals |    Limit  Clauses Lit/Cl |          |
===============================================================================
===============================================================================
restarts              : 1
conflicts             : 32             (54 /sec)
decisions             : 857            (0.00 % random) (1450 /sec)
propagations          : 39039          (66070 /sec)
conflict literals     : 4520           (0.07 % deleted)
Memory used           : 78.00 MB
CPU time              : 0.590873 s

SATISFIABLE
